Cl Na
 1.0000000000000000
    11.2070000000000007    0.0000000000000000    0.0000000000000000
     0.0000000000000000   11.2070000000000007    0.0000000000000000
     0.0000000000000000    0.0000000000000000   11.2070000000000007
 Cl  Na 
  32  32
Cartesian
  0.0000000000000000  5.6034999999999995  8.4052500000000006
  2.8017500000000002  8.4052500000000006  8.4052500000000006
  2.8017500000000002  5.6034999999999995  5.6034999999999995
  0.0000000000000000  8.4052500000000006  5.6034999999999995
  5.6034999999999995  8.4052500000000006  5.6034999999999995
  8.4052500000000006  2.8017500000000002  2.8017500000000002
  8.4052500000000006  0.0000000000000000  0.0000000000000000
  5.6034999999999995  2.8017500000000002  0.0000000000000000
  5.6034999999999995  0.0000000000000000  2.8017500000000002
  0.0000000000000000  5.6034999999999995  2.8017500000000002
  8.4052500000000006  2.8017500000000002  8.4052500000000006
  5.6034999999999995  2.8017500000000002  5.6034999999999995
  5.6034999999999995  0.0000000000000000  8.4052500000000006
  8.4052500000000006  8.4052500000000006  2.8017500000000002
  8.4052500000000006  5.6034999999999995  0.0000000000000000
  5.6034999999999995  8.4052500000000006  0.0000000000000000
  5.6034999999999995  5.6034999999999995  2.8017500000000002
  8.4052500000000006  8.4052500000000006  8.4052500000000006
  8.4052500000000006  5.6034999999999995  5.6034999999999995
  8.4052500000000006  0.0000000000000000  5.6034999999999995
  0.0000000000000000  8.4052500000000006  0.0000000000000000
  5.6034999999999995  5.6034999999999995  8.4052500000000006
  2.8017500000000002  8.4052500000000006  2.8017500000000002
  2.8017500000000002  5.6034999999999995  0.0000000000000000
  0.0000000000000000  0.0000000000000000  2.8017500000000002
  2.8017500000000002  2.8017500000000002  8.4052500000000006
  2.8017500000000002  0.0000000000000000  5.6034999999999995
  0.0000000000000000  2.8017500000000002  5.6034999999999995
  2.8017500000000002  0.0000000000000000  0.0000000000000000
  0.0000000000000000  0.0000000000000000  8.4052500000000006
  0.0000000000000000  2.8017500000000002  0.0000000000000000
  2.8017500000000002  2.8017500000000002  2.8017500000000002
  2.8017500000000002  2.8017500000000002  0.0000000000000000
  5.6034999999999995  5.6034999999999995  5.6034999999999995
  0.0000000000000000  0.0000000000000000  5.6034999999999995
  8.4052500000000006  8.4052500000000006  0.0000000000000000
  8.4052500000000006  5.6034999999999995  2.8017500000000002
  5.6034999999999995  8.4052500000000006  8.4052500000000006
  8.4052500000000006  5.6034999999999995  8.4052500000000006
  8.4052500000000006  8.4052500000000006  5.6034999999999995
  5.6034999999999995  8.4052500000000006  2.8017500000000002
  5.6034999999999995  5.6034999999999995  0.0000000000000000
  2.8017500000000002  0.0000000000000000  2.8017500000000002
  0.0000000000000000  2.8017500000000002  2.8017500000000002
  0.0000000000000000  2.8017500000000002  8.4052500000000006
  8.4052500000000006  0.0000000000000000  8.4052500000000006
  8.4052500000000006  2.8017500000000002  5.6034999999999995
  2.8017500000000002  8.4052500000000006  0.0000000000000000
  0.0000000000000000  5.6034999999999995  5.6034999999999995
  0.0000000000000000  8.4052500000000006  8.4052500000000006
  2.8017500000000002  5.6034999999999995  8.4052500000000006
  2.8017500000000002  8.4052500000000006  5.6034999999999995
  2.8017500000000002  5.6034999999999995  2.8017500000000002
  0.0000000000000000  8.4052500000000006  2.8017500000000002
  0.0000000000000000  5.6034999999999995  0.0000000000000000
  5.6034999999999995  0.0000000000000000  0.0000000000000000
  5.6034999999999995  2.8017500000000002  2.8017500000000002
  8.4052500000000006  0.0000000000000000  2.8017500000000002
  8.4052500000000006  2.8017500000000002  0.0000000000000000
  2.8017500000000002  2.8017500000000002  5.6034999999999995
  5.6034999999999995  0.0000000000000000  5.6034999999999995
  5.6034999999999995  2.8017500000000002  8.4052500000000006
  2.8017500000000002  0.0000000000000000  8.4052500000000006
  0.0000000000000000  0.0000000000000000  0.0000000000000000
