Li22 Mo12 O36
1.0
8.763744 0.000000 0.000000
4.379197 7.596766 0.000000
-2.854692 -1.624903 10.135015
Li Mo O
22 12 36
direct
0.980797 0.702490 0.008039 Li
0.702453 0.980682 0.007726 Li
0.981358 0.981380 0.005854 Li
0.836274 0.133736 0.242881 Li
0.524763 0.148432 0.257223 Li
0.151554 0.151860 0.236527 Li
0.490705 0.489505 0.235492 Li
0.830689 0.517567 0.259513 Li
0.148323 0.524782 0.256850 Li
0.517394 0.830296 0.259160 Li
0.134337 0.836294 0.243167 Li
0.849592 0.848876 0.259794 Li
0.980797 0.702490 0.508039 Li
0.702453 0.980682 0.507726 Li
0.981358 0.981380 0.505854 Li
0.836274 0.133736 0.742881 Li
0.524763 0.148432 0.757223 Li
0.151554 0.151860 0.736527 Li
0.830689 0.517567 0.759513 Li
0.148323 0.524782 0.756850 Li
0.134337 0.836294 0.743166 Li
0.849592 0.848876 0.759794 Li
0.319537 0.024076 0.499652 Mo
0.318423 0.318191 0.498659 Mo
0.024414 0.319246 0.499589 Mo
0.658272 0.348693 0.498529 Mo
0.657066 0.656857 0.499531 Mo
0.348846 0.657959 0.498464 Mo
0.319537 0.024076 1.000348 Mo
0.318423 0.318191 0.998659 Mo
0.024414 0.319246 0.999588 Mo
0.658272 0.348693 0.998529 Mo
0.657066 0.656857 0.999531 Mo
0.348846 0.657959 0.998465 Mo
0.253268 0.252138 0.144855 O
0.908708 0.257669 0.107948 O
0.566050 0.259736 0.108060 O
0.908187 0.565271 0.109598 O
0.260229 0.565283 0.107810 O
0.585629 0.584925 0.143836 O
0.566130 0.907204 0.109667 O
0.258221 0.907834 0.107767 O
0.915130 0.914837 0.133135 O
0.408480 0.086061 0.376311 O
0.087420 0.087702 0.376042 O
0.738746 0.109914 0.386194 O
0.086076 0.408281 0.376186 O
0.758796 0.411753 0.376041 O
0.412671 0.412957 0.375110 O
0.109421 0.738711 0.385926 O
0.740814 0.740805 0.388539 O
0.411322 0.759196 0.376035 O
0.253268 0.252138 0.644855 O
0.908708 0.257669 0.607948 O
0.566050 0.259736 0.608059 O
0.908187 0.565271 0.609598 O
0.260229 0.565283 0.607810 O
0.585629 0.584925 0.643837 O
0.566130 0.907204 0.609666 O
0.258221 0.907834 0.607767 O
0.915130 0.914837 0.633134 O
0.408480 0.086061 0.876310 O
0.087420 0.087702 0.876043 O
0.738746 0.109914 0.886193 O
0.086076 0.408281 0.876186 O
0.758796 0.411753 0.876041 O
0.412671 0.412957 0.875110 O
0.109421 0.738711 0.885926 O
0.740814 0.740805 0.888539 O
0.411322 0.759196 0.876035 O
